# Fourth dataset for scenario 3

# Sets
set T := t1 t2 t3 t4;
set S := s1 s2;
param N := 2;
set K := 1 2;

# Parameters
param p :
        s1   s2 :=
    t1   1   2
    t2   2   1
    t3   3   2
    t4   4   3
;

param d :=
    t1   1
    t2   2
    t3   1
    t4   2
;

param r :=
    s1   3
    s2   4
;
